(set-info :smt-lib-version 2.6)
(set-logic QF_NIA)
(set-info :source |
    Sequential equivalence checking.
    Calypto Design Systems, Inc. <www.calypto.com>
  |)
(set-info :category "industrial")
(set-info :status unsat)
(declare-fun P_2 () Int)
(declare-fun P_3 () Int)
(declare-fun P_4 () Int)
(declare-fun P_5 () Int)
(declare-fun P_6 () Int)
(declare-fun P_7 () Int)
(declare-fun P_8 () Int)
(declare-fun P_9 () Int)
(assert (<= 0 P_2))
(assert (<= P_2 43))
(assert (<= (* 1073741760 (- 1)) P_3))
(assert (<= P_3 (* 1 (- 1))))
(assert (<= 0 P_4))
(assert (<= P_4 3))
(assert (<= 0 P_5))
(assert (<= P_5 3))
(assert (<= 0 P_6))
(assert (<= P_6 4398046478336))
(assert (<= 0 P_7))
(assert (<= P_7 15))
(assert (<= 0 P_8))
(assert (<= P_8 67108860))
(assert (<= 0 P_9))
(assert (<= P_9 15))
(declare-fun dz () Int)
(declare-fun rz () Bool)
(assert (let ((?v_0 (+ 4 P_5))) (let ((?v_1 (ite (< ?v_0 4) ?v_0 (- ?v_0 8)))) (let ((?v_3 (+ 8388608 (+ (* P_4 2097152) (ite (>= ?v_1 0) ?v_1 (+ ?v_1 2097152))))) (?v_2 (not (= P_2 43))) (?v_5 (* 1 (- 1)))) (let ((?v_4 (+ (+ (+ (+ (+ (ite ?v_2 P_3 0) (* (* ?v_3 3) 64)) (- ?v_5 P_6)) 1) (* (ite ?v_2 P_7 0) P_8)) (* (* P_9 ?v_3) 4)))) (let ((?v_6 (< ?v_4 0))) (= (+ (* 2 dz) 1) (- (ite (and (not (= (ite (not ?v_6) ?v_4 (- ?v_5 (- ?v_4 (* 4398046511104 (- 1))))) 0)) ?v_6) 1 0) (ite ?v_6 1 0)))))))))
(check-sat)
(exit)
